16 16
10
3 3 13 13
3 4 7 12
3 5 13 8
3 6 10 10
3 7 4 9
3 8 13 0
3 10 10 0
3 12 7 0
4 7 0 9
7 9 0 0
% time elapsed: 0.09 s
% time elapsed: 0.09 s
%%%mzn-stat: initTime=0.000262
%%%mzn-stat: solveTime=0.002948
%%%mzn-stat: solutions=45
%%%mzn-stat: variables=21
%%%mzn-stat: propagators=15
%%%mzn-stat: propagations=7303
%%%mzn-stat: nodes=982
%%%mzn-stat: failures=53
%%%mzn-stat: restarts=46
%%%mzn-stat: peakDepth=22
%%%mzn-stat-end
